c CNF SAT conversion from Graph Coloring
c Input File name: graph_12_2.txt
c Number of Colors  5
c Conversion type = Standard
c Conversion Code: S--
p cnf 60 207
1 2 3 4 5 0 
6 7 8 9 10 0 
11 12 13 14 15 0 
16 17 18 19 20 0 
21 22 23 24 25 0 
26 27 28 29 30 0 
31 32 33 34 35 0 
36 37 38 39 40 0 
41 42 43 44 45 0 
46 47 48 49 50 0 
51 52 53 54 55 0 
56 57 58 59 60 0 
-1 -6 0 
-2 -7 0 
-3 -8 0 
-4 -9 0 
-5 -10 0 
-1 -11 0 
-2 -12 0 
-3 -13 0 
-4 -14 0 
-5 -15 0 
-1 -16 0 
-2 -17 0 
-3 -18 0 
-4 -19 0 
-5 -20 0 
-1 -31 0 
-2 -32 0 
-3 -33 0 
-4 -34 0 
-5 -35 0 
-1 -36 0 
-2 -37 0 
-3 -38 0 
-4 -39 0 
-5 -40 0 
-1 -41 0 
-2 -42 0 
-3 -43 0 
-4 -44 0 
-5 -45 0 
-1 -46 0 
-2 -47 0 
-3 -48 0 
-4 -49 0 
-5 -50 0 
-1 -51 0 
-2 -52 0 
-3 -53 0 
-4 -54 0 
-5 -55 0 
-6 -11 0 
-7 -12 0 
-8 -13 0 
-9 -14 0 
-10 -15 0 
-6 -16 0 
-7 -17 0 
-8 -18 0 
-9 -19 0 
-10 -20 0 
-6 -26 0 
-7 -27 0 
-8 -28 0 
-9 -29 0 
-10 -30 0 
-6 -31 0 
-7 -32 0 
-8 -33 0 
-9 -34 0 
-10 -35 0 
-6 -36 0 
-7 -37 0 
-8 -38 0 
-9 -39 0 
-10 -40 0 
-6 -41 0 
-7 -42 0 
-8 -43 0 
-9 -44 0 
-10 -45 0 
-6 -51 0 
-7 -52 0 
-8 -53 0 
-9 -54 0 
-10 -55 0 
-11 -16 0 
-12 -17 0 
-13 -18 0 
-14 -19 0 
-15 -20 0 
-11 -26 0 
-12 -27 0 
-13 -28 0 
-14 -29 0 
-15 -30 0 
-11 -31 0 
-12 -32 0 
-13 -33 0 
-14 -34 0 
-15 -35 0 
-11 -36 0 
-12 -37 0 
-13 -38 0 
-14 -39 0 
-15 -40 0 
-11 -41 0 
-12 -42 0 
-13 -43 0 
-14 -44 0 
-15 -45 0 
-11 -46 0 
-12 -47 0 
-13 -48 0 
-14 -49 0 
-15 -50 0 
-16 -21 0 
-17 -22 0 
-18 -23 0 
-19 -24 0 
-20 -25 0 
-16 -31 0 
-17 -32 0 
-18 -33 0 
-19 -34 0 
-20 -35 0 
-16 -41 0 
-17 -42 0 
-18 -43 0 
-19 -44 0 
-20 -45 0 
-16 -51 0 
-17 -52 0 
-18 -53 0 
-19 -54 0 
-20 -55 0 
-21 -26 0 
-22 -27 0 
-23 -28 0 
-24 -29 0 
-25 -30 0 
-21 -41 0 
-22 -42 0 
-23 -43 0 
-24 -44 0 
-25 -45 0 
-21 -51 0 
-22 -52 0 
-23 -53 0 
-24 -54 0 
-25 -55 0 
-26 -31 0 
-27 -32 0 
-28 -33 0 
-29 -34 0 
-30 -35 0 
-26 -36 0 
-27 -37 0 
-28 -38 0 
-29 -39 0 
-30 -40 0 
-26 -41 0 
-27 -42 0 
-28 -43 0 
-29 -44 0 
-30 -45 0 
-26 -51 0 
-27 -52 0 
-28 -53 0 
-29 -54 0 
-30 -55 0 
-31 -36 0 
-32 -37 0 
-33 -38 0 
-34 -39 0 
-35 -40 0 
-31 -41 0 
-32 -42 0 
-33 -43 0 
-34 -44 0 
-35 -45 0 
-31 -46 0 
-32 -47 0 
-33 -48 0 
-34 -49 0 
-35 -50 0 
-31 -51 0 
-32 -52 0 
-33 -53 0 
-34 -54 0 
-35 -55 0 
-36 -41 0 
-37 -42 0 
-38 -43 0 
-39 -44 0 
-40 -45 0 
-41 -51 0 
-42 -52 0 
-43 -53 0 
-44 -54 0 
-45 -55 0 
-46 -51 0 
-47 -52 0 
-48 -53 0 
-49 -54 0 
-50 -55 0 
